TYPE : TSP
DIMENSION: 4
EDGE_DATA_FORMAT: EDGE_LIST
EDGE_WEIGHT_TYPE: EXPLICIT
EDGE_WEIGHT_FORMAT: FULL_MATRIX 
EDGE_DATA_SECTION
0 1
0 2
0 3
1 0
1 3
2 0
2 3
3 0
3 1
3 2
-1
EDGE_WEIGHT_SECTION
0.0	1.0	1.0	1.0
1.0	0.0	0.0	1.0
1.0	0.0	0.0	1.0
1.0	1.0	1.0	0.0
DIFF_EDGE
1 2
CHROM_NUMBER
3
EOF
